155
100000
32564
21797
50169
19425
58918
504
1954
27919
39809
23514
6092
27238
19406
41499
27504
23911
21555
38756
5732
1510
20770
12353
32505
73120
27094
30238
32619
2193
14465
67495
19967
36877
15018
28485
50890
20943
373
7144
40212
4243
20136
40904
7488
31657
6088
17664
69853
1066
9789
53071
10760
26811
27138
58734
69105
21868
19398
47558
2472
23189
58243
47
9112
29916
1353
16904
51013
58606
37931
7562
26790
25919
6185
38078
67495
46228
17368
33632
24064
8736
12646
6519
24044
45832
12759
57433
59788
44751
28262
52002
27428
20271
74442
25779
9184
1948
55249
73189
26054
73544
65881
60963
17033
1647
14640
27261
54929
21225
51032
19921
68469
14393
11258
51897
73447
12491
22752
46604
7905
51677
26880
39227
15652
18060
21682
49831
20207
32165
20997
35376
30147
22320
11675
34762
25200
2784
6434
6851
2011
20880
32453
23969
67348
1913
22191
4508
57234
8860
46190
49170
48323
17998
46493
44030
2919
